files/upTests/__reps/Function1DPartial/0001.eprime.solution
language ESSENCE' 1.0

letting route_Function1D_Function1DPartial_tuple1 be
        [[false, true, true; int(4..6)], 
         [true, true, true; int(4..6)],
         [false, true, true; int(4..6)]; int(3..5)]
letting route_Function1D_Function1DPartial_tuple2 be
        [[7, 7, 7; int(4..6)], 
         [8, 7, 7; int(4..6)], 
         [7, 9, 8; int(4..6)]; int(3..5)]

